c Result of efficient AIG-to-CNF conversion using package CNF
p cnf 473 1709
-2 4 247 0
-2 -3 4 0
-2 -444 4 0
2 -4 0
2 444 3 -247 0
-3 441 442 443 0
3 -441 0
3 -443 0
3 -442 0
4 -5 207 0
-4 5 0
-4 -207 0
5 6 -25 104 0
5 -6 104 -202 0
-5 -104 0
-5 -6 202 0
-5 6 25 0
6 -7 13 0
-6 7 0
-6 -13 0
7 437 -8 0
-7 -437 0
-7 8 0
8 438 -9 0
8 -438 -12 0
-8 -438 12 0
-8 438 9 0
9 439 -10 0
9 -439 -11 0
-9 -439 11 0
-9 439 10 0
10 440 -468 0
10 -440 -469 0
-10 -440 469 0
-10 440 468 0
11 440 -470 0
11 -440 -471 0
-11 -440 471 0
-11 440 470 0
12 439 440 -472 0
-12 472 0
-12 -440 0
-12 -439 0
-13 436 14 0
13 -436 0
13 -14 0
-14 15 21 23 24 0
14 -24 0
14 -15 0
14 -23 0
14 -21 0
-15 433 434 16 18 0
15 -433 0
15 -18 0
15 -16 0
15 -434 0
-16 425 431 432 17 0
16 -17 0
16 -432 0
16 -425 0
16 -431 0
-17 429 430 435 0
17 -429 0
17 -435 0
17 -430 0
-18 426 427 428 19 0
18 -19 0
18 -428 0
18 -426 0
18 -427 0
-19 421 422 20 0
19 -20 0
19 -422 0
19 -421 0
-20 417 418 423 424 0
20 -424 0
20 -423 0
20 -417 0
20 -418 0
-21 415 419 420 22 0
21 -22 0
21 -420 0
21 -415 0
21 -419 0
-22 413 414 0
22 -413 0
22 -414 0
-23 409 416 0
23 -409 0
23 -416 0
-24 410 411 412 0
24 -410 0
24 -412 0
24 -411 0
25 26 -32 0
25 -26 -97 0
-25 -26 97 0
-25 26 32 0
26 13 -27 0
-26 -13 0
-26 27 0
27 437 -28 0
-27 -437 0
-27 28 0
28 438 -29 0
-28 -438 0
-28 29 0
29 439 -30 0
29 -439 -31 0
-29 -439 31 0
-29 439 30 0
30 440 -469 0
30 -440 -470 0
-30 -440 470 0
-30 440 469 0
-31 -440 472 0
-31 440 471 0
31 440 -471 0
31 -440 -472 0
32 -33 -81 0
32 33 37 -49 0
-32 -33 81 0
-32 33 -37 0
-32 33 49 0
33 13 -34 0
-33 -13 0
-33 34 0
34 437 -35 0
-34 -437 0
-34 35 0
35 438 -36 0
-35 -438 0
-35 36 0
36 439 -440 -472 0
36 439 440 -471 0
-36 -439 0
-36 -440 472 0
-36 440 471 0
-37 38 40 41 45 0
37 -45 0
37 -38 0
37 -41 0
37 -40 0
-38 444 465 3 39 0
38 -444 0
38 -39 0
38 -3 0
38 -465 0
-39 445 446 447 448 0
39 -448 0
39 -447 0
39 -445 0
39 -446 0
-40 449 450 0
40 -449 0
40 -450 0
-41 455 42 43 44 0
41 -455 0
41 -44 0
41 -43 0
41 -42 0
-42 466 467 0
42 -466 0
42 -467 0
-43 451 452 0
43 -451 0
43 -452 0
-44 453 454 0
44 -453 0
44 -454 0
-45 461 46 47 48 0
45 -461 0
45 -48 0
45 -47 0
45 -46 0
-46 462 463 464 0
46 -462 0
46 -464 0
46 -463 0
-47 456 457 0
47 -456 0
47 -457 0
-48 458 459 460 0
48 -458 0
48 -460 0
48 -459 0
-49 -468 65 0
-49 468 50 57 0
49 468 -50 0
49 -468 -65 0
49 468 -57 0
50 469 -54 0
50 469 -470 -51 0
-50 -469 0
-50 470 54 0
-50 51 54 0
51 471 -52 0
51 -471 -53 0
-51 -471 53 0
-51 471 52 0
52 -414 -472 0
52 -413 472 0
-52 413 472 0
-52 414 -472 0
53 -416 -472 0
53 -415 472 0
-53 415 472 0
-53 416 -472 0
54 470 -471 -56 0
54 470 471 -55 0
-54 -470 0
-54 -471 56 0
-54 471 55 0
55 -410 -472 0
55 -409 472 0
-55 409 472 0
-55 410 -472 0
56 -412 -472 0
56 -411 472 0
-56 411 472 0
-56 412 -472 0
57 -469 -58 0
-57 469 0
-57 58 0
58 470 -59 0
58 -470 -62 0
-58 -470 62 0
-58 470 59 0
59 471 -60 0
59 -471 -61 0
-59 -471 61 0
-59 471 60 0
60 -418 -472 0
60 -417 472 0
-60 417 472 0
-60 418 -472 0
61 -420 -472 0
61 -419 472 0
-61 419 472 0
-61 420 -472 0
62 471 -63 0
62 -471 -64 0
-62 -471 64 0
-62 471 63 0
63 -422 -472 0
63 -421 472 0
-63 421 472 0
-63 422 -472 0
64 -424 -472 0
64 -423 472 0
-64 423 472 0
-64 424 -472 0
65 469 -66 0
65 -469 -74 0
-65 -469 74 0
-65 469 66 0
66 -67 -71 0
66 470 -67 0
-66 67 0
-66 -470 71 0
-67 470 68 0
67 -470 0
67 -68 0
68 471 -69 0
68 -471 -70 0
-68 -471 70 0
-68 471 69 0
69 -426 -472 0
69 -425 472 0
-69 425 472 0
-69 426 -472 0
70 -428 -472 0
70 -427 472 0
-70 427 472 0
-70 428 -472 0
71 471 -72 0
71 -471 -73 0
-71 -471 73 0
-71 471 72 0
72 -430 -472 0
72 -429 472 0
-72 429 472 0
-72 430 -472 0
73 -432 -472 0
73 -431 472 0
-73 431 472 0
-73 432 -472 0
74 470 -75 0
74 -470 -78 0
-74 -470 78 0
-74 470 75 0
75 471 -76 0
75 -471 -77 0
-75 -471 77 0
-75 471 76 0
76 -434 -472 0
76 -433 472 0
-76 433 472 0
-76 434 -472 0
77 -436 -472 0
77 -435 472 0
-77 435 472 0
-77 436 -472 0
78 471 -79 0
78 -471 -80 0
-78 -471 80 0
-78 471 79 0
79 -438 -472 0
79 -437 472 0
-79 437 472 0
-79 438 -472 0
-80 439 472 0
-80 440 -472 0
80 -440 -472 0
80 -439 472 0
81 37 -82 0
81 -468 37 -89 0
-81 -37 0
-81 82 89 0
-81 468 82 0
82 468 -469 -86 0
82 468 469 -83 0
-82 -468 0
-82 -469 86 0
-82 469 83 0
-83 470 84 0
-83 -470 85 0
83 -470 -85 0
83 470 -84 0
-84 471 56 0
-84 -471 52 0
84 -471 -52 0
84 471 -56 0
85 471 -53 0
85 -471 -60 0
-85 -471 60 0
-85 471 53 0
86 470 -87 0
86 -470 -88 0
-86 -470 88 0
-86 470 87 0
87 471 -61 0
87 -471 -63 0
-87 -471 63 0
-87 471 61 0
88 471 -64 0
88 -471 -69 0
-88 -471 69 0
-88 471 64 0
89 -90 -94 0
89 469 -90 0
-89 90 0
-89 -469 94 0
-90 469 91 0
90 -469 0
90 -91 0
91 470 -92 0
91 -470 -93 0
-91 -470 93 0
-91 470 92 0
92 471 -70 0
92 -471 -72 0
-92 -471 72 0
-92 471 70 0
93 471 -73 0
93 -471 -76 0
-93 -471 76 0
-93 471 73 0
94 470 -95 0
94 -470 -96 0
-94 -470 96 0
-94 470 95 0
95 471 -77 0
95 -471 -79 0
-95 -471 79 0
-95 471 77 0
96 -439 471 472 0
96 -440 471 -472 0
-96 -471 0
-96 440 -472 0
-96 439 472 0
97 33 -98 0
97 -33 -101 0
-97 -33 101 0
-97 33 98 0
98 -468 37 -100 0
98 468 37 -99 0
-98 -37 0
-98 -468 100 0
-98 468 99 0
99 469 -58 0
99 -469 -66 0
-99 -469 66 0
-99 469 58 0
100 469 -74 0
-100 -469 0
-100 74 0
101 -468 37 -103 0
101 468 37 -102 0
-101 -37 0
-101 -468 103 0
-101 468 102 0
102 469 -86 0
102 -469 -91 0
-102 -469 91 0
-102 469 86 0
103 469 -94 0
-103 -469 0
-103 94 0
104 14 -171 0
104 14 -105 151 0
-104 -14 0
-104 105 171 0
-104 -151 171 0
-105 437 128 133 0
-105 -437 106 128 0
105 -128 0
105 437 -133 0
105 -437 -106 0
-106 107 116 0
106 -107 0
106 -116 0
107 -438 -112 0
107 438 -108 0
-107 438 108 0
-107 -438 112 0
-108 -439 109 0
-108 439 110 111 0
108 439 -111 0
108 -439 -109 0
108 439 -110 0
-109 -440 461 462 0
-109 440 460 461 0
109 -461 0
109 440 -460 0
109 -440 -462 0
110 440 -458 0
110 -440 -459 0
-110 -440 459 0
-110 440 458 0
111 440 -459 0
111 -440 -460 0
-111 -440 460 0
-111 440 459 0
-112 -439 113 0
-112 439 114 115 0
112 439 -115 0
112 -439 -113 0
112 439 -114 0
-113 -440 465 466 0
-113 440 464 465 0
113 -465 0
113 440 -464 0
113 -440 -466 0
114 440 -462 0
114 -440 -463 0
-114 -440 463 0
-114 440 462 0
115 440 -463 0
115 -440 -464 0
-115 -440 464 0
-115 440 463 0
116 438 -125 0
116 -438 -117 0
116 438 -122 0
-116 -438 117 0
-116 438 122 125 0
-117 118 120 0
117 -118 0
117 -120 0
118 -439 -111 0
118 439 -119 0
-118 439 119 0
-118 -439 111 0
119 440 -457 0
119 -440 -458 0
-119 -440 458 0
-119 440 457 0
120 -439 -110 0
120 439 -121 0
-120 439 121 0
-120 -439 110 0
121 440 -456 0
121 -440 -457 0
-121 -440 457 0
-121 440 456 0
122 439 -123 0
122 -439 -124 0
-122 -439 124 0
-122 439 123 0
123 440 -453 0
123 -440 -454 0
-123 -440 454 0
-123 440 453 0
124 440 -455 0
124 -440 -456 0
-124 -440 456 0
-124 440 455 0
125 439 -126 0
125 -439 -127 0
-125 -439 127 0
-125 439 126 0
126 440 -452 0
126 -440 -453 0
-126 -440 453 0
-126 440 452 0
127 440 -454 0
127 -440 -455 0
-127 -440 455 0
-127 440 454 0
-128 436 -438 131 0
-128 436 438 129 0
128 -436 0
128 -438 -131 0
128 438 -129 0
129 -439 -123 0
129 439 -130 0
129 -439 -126 0
-129 439 130 0
-129 -439 123 126 0
-130 -440 451 452 0
-130 440 450 451 0
130 -451 0
130 440 -450 0
130 -440 -452 0
-131 -439 132 0
-131 439 124 127 0
131 439 -124 0
131 -439 -132 0
131 439 -127 0
-132 -440 457 458 0
-132 440 456 457 0
132 -457 0
132 440 -456 0
132 -440 -458 0
133 -134 -142 0
133 -140 -142 0
133 438 -142 0
-133 142 0
-133 -438 134 140 0
-134 -439 135 137 0
-134 439 136 137 0
134 -137 0
134 439 -136 0
134 -439 -135 0
135 440 -450 0
135 -440 -451 0
-135 -440 451 0
-135 440 450 0
136 440 -448 0
136 -440 -449 0
-136 -440 449 0
-136 440 448 0
137 -439 -139 0
137 439 -138 0
137 -439 -136 0
-137 439 138 0
-137 -439 139 136 0
-138 -440 447 448 0
-138 440 446 447 0
138 -447 0
138 440 -446 0
138 -440 -448 0
139 440 -449 0
139 -440 -450 0
-139 -440 450 0
-139 440 449 0
140 -439 -141 0
140 439 -139 0
-140 439 139 0
-140 -439 141 0
141 440 -451 0
141 -440 -452 0
-141 -440 452 0
-141 440 451 0
-142 439 143 150 0
-142 143 149 150 0
142 -143 0
142 -150 0
142 -439 -149 0
-143 -439 145 0
-143 443 144 145 0
143 -145 0
143 439 -443 0
143 439 -144 0
144 -440 -444 0
-144 440 0
-144 444 0
-145 438 440 146 0
-145 438 445 146 0
145 -438 0
145 -146 0
145 -440 -445 0
146 -439 -147 0
146 439 -148 0
-146 439 148 0
-146 -439 147 0
147 440 -447 0
147 -440 -448 0
-147 -440 448 0
-147 440 447 0
148 440 -445 0
148 -440 -446 0
-148 -440 446 0
-148 440 445 0
-149 -440 446 447 0
-149 440 445 446 0
149 -446 0
149 440 -445 0
149 -440 -447 0
150 440 -444 0
150 439 440 -442 0
-150 -440 0
-150 -439 444 0
-150 442 444 0
151 -437 -165 0
151 152 159 -165 0
-151 165 0
-151 437 -152 0
-151 437 -159 0
-152 107 153 0
152 -107 0
152 -153 0
153 438 -154 0
153 -438 -156 0
-153 -438 156 0
-153 438 154 0
154 439 -155 0
154 -439 -114 0
-154 -439 114 0
-154 439 155 0
155 440 -460 0
155 -440 -461 0
-155 -440 461 0
-155 440 460 0
156 439 -157 0
156 -439 -158 0
-156 -439 158 0
-156 439 157 0
157 440 -464 0
157 -440 -465 0
-157 -440 465 0
-157 440 464 0
158 440 -466 0
158 -440 -467 0
-158 -440 467 0
-158 440 466 0
159 438 -160 0
159 -438 -162 0
-159 -438 162 0
-159 438 160 0
160 439 -161 0
160 -439 -115 0
-160 -439 115 0
-160 439 161 0
161 440 -461 0
161 -440 -462 0
-161 -440 462 0
-161 440 461 0
162 439 -163 0
162 -439 -164 0
-162 -439 164 0
-162 439 163 0
163 440 -465 0
163 -440 -466 0
-163 -440 466 0
-163 440 465 0
164 440 -467 0
164 -440 -468 0
-164 -440 468 0
-164 440 467 0
165 -436 166 170 0
165 -436 437 166 0
-165 436 0
-165 -166 0
-165 -437 -170 0
166 -438 -36 0
166 438 -167 0
166 -438 -169 0
-166 438 167 0
-166 -438 36 169 0
-167 -439 168 0
-167 439 158 164 0
167 439 -158 0
167 -439 -168 0
167 439 -164 0
-168 -440 469 470 0
-168 440 468 469 0
168 -469 0
168 440 -468 0
168 -440 -470 0
169 439 -11 0
169 -439 440 -472 0
-169 -439 -440 0
-169 439 11 0
-169 -439 472 0
-170 8 28 0
170 -8 0
170 -28 0
-171 436 172 193 0
-171 -436 193 195 0
171 -193 0
171 -436 -195 0
171 436 -172 0
-172 -437 166 180 0
-172 166 173 180 0
172 -180 0
172 -166 0
172 437 -173 0
-173 152 174 175 177 0
173 -175 0
173 -177 0
173 -152 0
173 -174 0
-174 438 112 0
-174 -438 167 0
174 -438 -167 0
174 438 -112 0
-175 159 176 0
175 -159 0
175 -176 0
176 -438 -9 0
176 438 -156 0
-176 438 156 0
-176 -438 9 0
177 -438 -146 0
177 438 -178 179 0
-177 438 -179 0
-177 -438 146 0
-177 438 178 0
-178 439 -440 442 0
-178 439 440 441 0
178 -439 0
178 -440 -442 0
178 440 -441 0
179 -439 -440 444 0
179 -439 440 443 0
-179 439 0
-179 -440 -444 0
-179 440 -443 0
-180 437 181 184 0
-180 -437 184 -190 0
180 -184 0
180 -437 190 0
180 437 -181 0
-181 116 182 0
181 -116 0
181 -182 0
-182 -438 183 0
-182 438 120 131 0
182 438 -120 0
182 -438 -183 0
182 438 -131 0
-183 108 154 0
183 -108 0
183 -154 0
184 185 -189 0
184 185 -188 0
184 185 -187 0
-184 -185 0
-184 187 188 189 0
185 -437 182 186 0
-185 437 0
-185 -182 0
-185 -186 0
186 438 -118 0
186 -438 -160 0
-186 -438 160 0
-186 438 118 0
187 -438 -125 0
187 -438 -129 0
-187 438 0
-187 125 129 0
188 -438 -122 0
188 438 -140 0
-188 438 140 0
-188 -438 122 0
189 438 -134 0
-189 -438 0
-189 134 0
190 170 188 -191 192 0
-190 -192 0
-190 -170 0
-190 191 0
-190 -188 0
191 153 174 175 -185 0
-191 -153 0
-191 185 0
-191 -175 0
-191 -174 0
-192 -438 0
-192 12 36 169 0
192 438 -169 0
192 438 -36 0
192 438 -12 0
-193 186 194 0
-193 -437 194 0
-193 -436 437 186 0
193 437 -186 0
193 -437 -194 0
193 436 -194 0
194 -438 -29 0
194 438 -162 0
-194 438 162 0
-194 -438 29 0
-195 -437 197 199 0
-195 196 197 199 0
195 -199 0
195 -197 0
195 437 -196 0
-196 174 176 194 0
196 -174 0
196 -194 0
196 -176 0
-197 -437 27 0
-197 27 35 198 0
197 -27 0
197 437 -198 0
197 437 -35 0
198 438 439 440 -472 0
-198 472 0
-198 -440 0
-198 -438 0
-198 -439 0
-199 437 7 200 0
-199 7 192 200 0
199 -200 0
199 -7 0
199 -437 -192 0
200 437 -201 0
-200 -437 0
-200 201 0
201 438 -169 0
-201 -438 0
-201 169 0
202 26 -203 0
202 -26 -206 0
-202 -26 206 0
-202 26 203 0
203 33 -205 0
203 -33 -89 204 0
-203 -33 89 0
-203 33 205 0
-203 -33 -204 0
-204 468 37 0
204 -468 0
204 -37 0
205 -65 204 0
-205 65 0
-205 -204 0
206 33 -100 204 0
206 -33 -103 204 0
-206 -204 0
-206 -33 103 0
-206 33 100 0
207 -468 208 -226 0
207 468 208 -212 0
-207 -208 0
-207 -468 226 0
-207 468 212 0
-208 39 209 210 211 0
208 -211 0
208 -39 0
208 -210 0
208 -209 0
-209 461 465 42 46 0
209 -461 0
209 -46 0
209 -42 0
209 -465 0
-210 449 450 451 452 0
210 -452 0
210 -451 0
210 -449 0
210 -450 0
-211 455 44 47 48 0
211 -455 0
211 -48 0
211 -47 0
211 -44 0
-212 -469 57 0
-212 54 57 213 0
212 -57 0
212 469 -213 0
212 469 -54 0
213 -470 -471 -220 0
213 -470 471 -214 0
-213 470 0
-213 -471 220 0
-213 471 214 0
214 -413 472 0
214 -472 104 -215 0
-214 -472 -104 0
-214 413 472 0
-214 -472 215 0
-215 414 216 0
-215 414 6 0
215 -414 0
215 -6 -216 0
216 -26 -217 0
216 -430 26 0
-216 -26 217 0
-216 430 26 0
217 218 -219 0
-217 -218 0
-217 219 0
218 13 -200 0
-218 -13 0
-218 200 0
219 -440 -33 0
219 -438 33 0
-219 438 33 0
-219 440 -33 0
220 472 -221 0
220 -472 -223 0
-220 -472 223 0
-220 472 221 0
221 -415 104 0
221 -6 104 -222 0
-221 -104 0
-221 415 6 0
-221 415 222 0
222 -431 26 0
222 -439 -26 218 0
-222 431 26 0
-222 439 -26 0
-222 -26 -218 0
223 -416 104 0
223 -6 104 -224 0
-223 -104 0
-223 416 6 0
-223 416 224 0
224 -26 -225 0
224 -432 26 0
-224 -26 225 0
-224 432 26 0
225 -440 33 218 0
-225 440 0
-225 -218 0
-225 -33 0
226 -469 -234 0
226 469 -67 227 0
-226 469 67 0
-226 -469 234 0
-226 469 -227 0
227 -470 -471 231 0
227 -470 471 228 0
-227 470 0
-227 -471 -231 0
-227 471 -228 0
228 -472 -229 0
228 -429 472 0
-228 -472 229 0
-228 429 472 0
229 -216 230 0
-229 216 0
-229 -230 0
-230 6 104 0
230 -6 0
230 -104 0
231 472 -232 0
231 -472 -233 0
-231 -472 233 0
-231 472 232 0
232 -222 230 0
-232 222 0
-232 -230 0
233 -224 230 0
-233 224 0
-233 -230 0
234 470 -235 0
234 -470 -240 0
-234 -470 240 0
-234 470 235 0
235 471 -76 0
235 -471 -236 0
-235 -471 236 0
-235 471 76 0
236 -472 -237 0
236 -435 472 0
-236 -472 237 0
-236 435 472 0
237 230 -238 0
-237 -230 0
-237 238 0
238 26 -239 0
-238 -26 0
-238 239 0
239 -436 218 0
239 -440 33 -218 0
-239 440 -218 0
-239 436 218 0
-239 -33 -218 0
240 471 -241 0
240 -471 -243 0
-240 -471 243 0
-240 471 241 0
241 -437 472 230 0
241 -472 230 -242 0
-241 -230 0
-241 -472 242 0
-241 437 472 0
242 26 -217 0
-242 -26 0
-242 217 0
243 472 -244 0
243 -472 -246 0
-243 -472 246 0
-243 472 244 0
244 230 -245 0
-244 -230 0
-244 245 0
245 -439 26 218 0
-245 439 0
-245 -218 0
-245 -26 0
246 26 -225 230 0
-246 -230 0
-246 225 0
-246 -26 0
-247 -5 248 356 0
-247 207 248 356 0
247 -248 0
247 -356 0
247 5 -207 0
-248 249 339 0
-248 249 -278 0
-248 -208 249 0
248 -249 0
248 208 278 -339 0
249 -230 -274 0
249 6 250 -274 0
-249 274 0
-249 230 -250 0
-249 -6 230 0
250 -26 -267 0
250 26 -251 259 0
-250 26 251 0
-250 -26 267 0
-250 26 -259 0
-251 -33 218 252 0
-251 33 81 218 0
251 -218 0
251 33 -81 0
251 -33 -252 0
252 -468 37 -256 0
252 468 37 -253 0
-252 -37 0
-252 -468 256 0
-252 468 253 0
-253 469 254 0
-253 -469 255 0
253 -469 -255 0
253 469 -254 0
-254 -470 59 0
-254 470 51 0
254 470 -51 0
254 -470 -59 0
255 470 -62 0
255 -470 -68 0
-255 -470 68 0
-255 470 62 0
256 469 -257 0
256 -469 -258 0
-256 -469 258 0
-256 469 257 0
257 470 -71 0
257 -470 -75 0
-257 -470 75 0
-257 470 71 0
258 470 -78 0
-258 -470 0
-258 78 0
259 -33 98 -218 0
259 33 -218 260 0
-259 218 0
-259 33 -260 0
-259 -33 -98 0
260 -468 37 -264 0
260 468 37 -261 0
-260 -37 0
-260 -468 264 0
-260 468 261 0
-261 469 262 0
-261 -469 263 0
261 -469 -263 0
261 469 -262 0
-262 -470 87 0
-262 470 85 0
262 470 -85 0
262 -470 -87 0
263 470 -88 0
263 -470 -92 0
-263 -470 92 0
-263 470 88 0
264 469 -265 0
264 -469 -266 0
-264 -469 266 0
-264 469 265 0
265 470 -93 0
265 -470 -95 0
-265 -470 95 0
-265 470 93 0
266 470 -96 0
-266 -470 0
-266 96 0
267 218 -268 0
267 -218 -271 0
-267 -218 271 0
-267 218 268 0
268 33 -101 0
268 -33 -269 270 0
-268 -33 269 0
-268 33 101 0
-268 -33 -270 0
-269 468 -469 257 0
-269 468 469 255 0
269 -468 0
269 -469 -257 0
269 469 -255 0
-270 468 37 0
-270 469 37 -258 0
270 -37 0
270 -468 258 0
270 -468 -469 0
271 -33 -205 0
271 33 -272 273 0
-271 -33 205 0
-271 33 -273 0
-271 33 272 0
-272 468 -469 265 0
-272 468 469 263 0
272 -468 0
272 -469 -265 0
272 469 -263 0
-273 468 37 0
-273 469 37 -266 0
273 -37 0
273 -468 266 0
273 -468 -469 0
274 -82 208 0
274 -468 208 -275 0
-274 -208 0
-274 82 275 0
-274 468 82 0
275 -90 -276 0
275 469 -90 0
-275 90 0
-275 -469 276 0
276 470 -277 0
276 -470 471 -243 0
-276 -470 -471 0
-276 470 277 0
-276 -470 243 0
277 471 -236 0
277 -471 -241 0
-277 -471 241 0
-277 471 236 0
278 -6 104 -336 0
278 6 104 -279 0
-278 -104 0
-278 -6 336 0
-278 6 279 0
279 26 -280 0
279 -26 -329 0
-279 -26 329 0
-279 26 280 0
280 37 -218 -322 0
280 37 218 -281 0
-280 -37 0
-280 -218 322 0
-280 218 281 0
-281 -468 304 0
-281 468 282 289 0
281 468 -282 0
281 -468 -304 0
281 468 -289 0
282 469 -470 -286 0
282 469 470 -283 0
-282 -469 0
-282 -470 286 0
-282 470 283 0
-283 471 285 0
-283 -471 284 0
283 -471 -284 0
283 471 -285 0
284 -413 -472 0
284 -412 472 0
-284 412 472 0
-284 413 -472 0
285 -411 -472 0
285 -410 472 0
-285 410 472 0
-285 411 -472 0
286 471 -287 0
286 -471 -288 0
-286 -471 288 0
-286 471 287 0
287 -415 -472 0
287 -414 472 0
-287 414 472 0
-287 415 -472 0
288 -417 -472 0
288 -416 472 0
-288 416 472 0
-288 417 -472 0
289 -469 -290 0
-289 469 0
-289 290 0
290 -470 298 0
290 -291 298 0
-290 -298 0
-290 470 291 0
291 -471 -297 0
291 471 -292 296 0
-291 471 292 0
-291 -471 297 0
-291 471 -296 0
-292 472 -104 0
-292 418 472 293 0
292 -472 0
292 -418 104 0
292 104 -293 0
293 -6 -294 0
-293 6 0
-293 294 0
294 26 -295 0
-294 -26 0
-294 295 0
295 -218 -219 0
295 -434 218 0
-295 -218 219 0
-295 434 218 0
296 419 -472 0
-296 -419 0
-296 472 0
297 -421 -472 0
297 -420 472 0
-297 420 472 0
-297 421 -472 0
298 -470 299 0
-298 470 0
-298 -299 0
299 471 -300 0
299 -471 -303 0
-299 -471 303 0
-299 471 300 0
300 -472 104 -302 0
300 472 104 -301 0
-300 -104 0
-300 -472 302 0
-300 472 301 0
-301 422 242 0
-301 422 6 0
301 -422 0
301 -6 -242 0
-302 423 245 0
-302 423 6 0
302 -423 0
302 -6 -245 0
303 -425 -472 0
303 -424 472 0
-303 424 472 0
-303 425 -472 0
304 -305 -315 0
304 469 -305 0
-304 305 0
-304 -469 315 0
-305 469 306 0
305 -469 0
305 -306 0
306 470 -307 0
306 -470 -311 0
-306 -470 311 0
-306 470 307 0
307 471 -308 0
307 -471 -310 0
-307 -471 310 0
-307 471 308 0
308 -427 -472 0
308 472 230 -309 0
-308 472 309 0
-308 427 -472 0
-308 472 -230 0
309 -26 -295 0
309 -426 26 0
-309 -26 295 0
-309 426 26 0
310 -429 -472 0
310 -428 472 0
-310 428 472 0
-310 429 -472 0
311 -471 -314 0
311 471 -312 313 0
-311 471 312 0
-311 -471 314 0
-311 471 -313 0
-312 472 229 0
312 -472 0
312 -229 0
313 431 -472 0
-313 -431 0
-313 472 0
314 -433 -472 0
314 -432 472 0
-314 432 472 0
-314 433 -472 0
315 470 -316 0
315 -470 -320 0
-315 -470 320 0
-315 470 316 0
316 -471 -319 0
316 471 -317 318 0
-316 471 317 0
-316 -471 319 0
-316 471 -318 0
-317 472 294 0
-317 472 -230 0
317 -472 0
317 230 -294 0
318 435 -472 0
-318 -435 0
-318 472 0
319 -437 -472 0
319 -436 472 0
-319 436 472 0
-319 437 -472 0
320 471 -321 0
320 -440 -471 472 0
-320 471 321 0
-320 -471 -472 0
-320 440 -471 0
321 -439 -472 0
321 -438 472 0
-321 438 472 0
-321 439 -472 0
-322 468 323 0
-322 -468 326 0
322 -468 -326 0
322 468 -323 0
-323 469 324 0
-323 -469 325 0
323 -469 -325 0
323 469 -324 0
-324 -470 291 0
-324 470 286 0
324 470 -286 0
324 -470 -291 0
325 470 -299 0
325 -470 -307 0
-325 -470 307 0
-325 470 299 0
326 469 -327 0
326 -469 -328 0
-326 -469 328 0
-326 469 327 0
327 470 -311 0
327 -470 -316 0
-327 -470 316 0
-327 470 311 0
328 470 -320 0
-328 -470 0
-328 320 0
329 218 -330 0
329 -218 -333 0
-329 -218 333 0
-329 218 330 0
330 -468 37 -332 0
330 468 37 -331 0
-330 -37 0
-330 -468 332 0
-330 468 331 0
331 469 -290 0
331 -469 -306 0
-331 -469 306 0
-331 469 290 0
332 469 -315 0
-332 -469 0
-332 315 0
333 -468 37 -335 0
333 468 37 -334 0
-333 -37 0
-333 -468 335 0
-333 468 334 0
334 469 -325 0
334 -469 -327 0
-334 -469 327 0
-334 469 325 0
335 469 -328 0
-335 -469 0
-335 328 0
336 26 -337 0
336 -26 -338 0
-336 -26 338 0
-336 26 337 0
337 204 -218 -326 0
337 204 218 -304 0
-337 -204 0
-337 -218 326 0
-337 218 304 0
338 204 -218 -335 0
338 204 218 -332 0
-338 -204 0
-338 -218 335 0
-338 218 332 0
-339 -468 305 0
-339 468 340 0
-339 -468 -348 0
339 468 -340 0
339 -468 -305 348 0
-340 282 341 0
-340 282 -298 0
-340 469 282 0
340 -282 0
340 -469 298 -341 0
-341 470 -471 346 0
-341 470 471 342 0
341 -470 0
341 -471 -346 0
341 471 -342 0
342 -472 104 -344 0
342 472 104 -343 0
-342 -104 0
-342 -472 344 0
-342 472 343 0
-343 418 294 0
-343 418 6 0
343 -418 0
343 -6 -294 0
-344 419 345 0
-344 419 6 0
344 -419 0
344 -6 -345 0
345 -435 26 218 0
345 -439 26 -218 0
-345 -26 0
-345 439 -218 0
-345 435 218 0
346 -421 -472 0
346 472 104 -347 0
-346 421 -472 0
-346 472 347 0
-346 472 -104 0
-347 420 238 0
-347 420 6 0
347 -420 0
347 -6 -238 0
348 -469 -470 352 0
348 -469 470 349 0
-348 469 0
-348 -470 -352 0
-348 470 -349 0
349 471 -350 0
349 -471 -351 0
-349 -471 351 0
-349 471 350 0
350 -472 230 -345 0
350 472 230 -294 0
-350 -230 0
-350 -472 345 0
-350 472 294 0
351 472 230 -238 0
351 -437 -472 230 0
-351 -230 0
-351 472 238 0
-351 437 -472 0
352 471 -353 0
352 -471 -355 0
-352 -471 355 0
-352 471 353 0
353 472 -354 0
353 -472 -244 0
-353 -472 244 0
-353 472 354 0
354 230 -242 0
-354 -230 0
-354 242 0
355 472 -246 0
-355 -472 0
-355 246 0
356 208 357 -401 0
356 208 357 -405 0
-356 -208 0
-356 -357 0
-356 401 405 0
357 -6 104 -398 0
357 6 104 -358 0
-357 -104 0
-357 -6 398 0
-357 6 358 0
358 26 -359 0
358 -26 -392 0
-358 -26 392 0
-358 26 359 0
359 37 -218 -381 0
359 37 218 -360 0
-359 -37 0
-359 -218 381 0
-359 218 360 0
-360 -468 369 0
-360 468 361 365 0
360 468 -361 0
360 -468 -369 0
360 468 -365 0
361 469 -470 -363 0
361 469 470 -362 0
-361 -469 0
-361 -470 363 0
-361 470 362 0
-362 -471 287 0
-362 471 284 0
362 471 -284 0
362 -471 -287 0
363 -471 364 0
363 -288 364 0
-363 -364 0
-363 471 288 0
364 -471 342 0
-364 471 0
-364 -342 0
365 -469 -366 0
-365 469 0
-365 366 0
366 470 -367 0
366 -470 -368 0
-366 -470 368 0
-366 470 367 0
367 -471 -300 0
367 471 -346 0
-367 471 346 0
-367 -471 300 0
368 471 -303 0
368 -471 -308 0
-368 -471 308 0
-368 471 303 0
369 469 -370 0
369 -469 -378 0
-369 -469 378 0
-369 469 370 0
370 470 -371 0
370 -371 376 -377 0
-370 371 0
-370 -470 377 0
-370 -470 -376 0
-371 470 372 0
371 -470 0
371 -372 0
372 471 -373 0
372 -471 -312 375 0
-372 -471 312 0
-372 471 373 0
-372 -471 -375 0
373 -429 -472 0
373 472 230 -374 0
-373 472 374 0
-373 429 -472 0
-373 472 -230 0
374 -26 -239 0
374 -428 26 0
-374 -26 239 0
-374 428 26 0
375 -472 232 0
-375 472 0
-375 -232 0
376 -471 350 0
-376 471 0
-376 -350 0
-377 433 471 -472 0
-377 432 471 472 0
377 -471 0
377 -432 472 0
377 -433 -472 0
378 470 -379 0
378 -470 -380 0
-378 -470 380 0
-378 470 379 0
379 471 -319 0
379 -471 -321 0
-379 -471 321 0
-379 471 319 0
380 -440 471 472 0
-380 440 0
-380 -472 0
-380 -471 0
-381 468 382 0
-381 -468 387 0
381 -468 -387 0
381 468 -382 0
-382 469 383 0
-382 -469 386 0
382 -469 -386 0
382 469 -383 0
-383 470 384 0
-383 -470 367 0
383 -470 -367 0
383 470 -384 0
384 -471 364 0
384 364 -385 0
-384 -364 0
-384 471 385 0
385 -417 -472 0
385 472 -223 0
-385 417 -472 0
-385 472 223 0
386 470 -368 0
386 -470 -372 0
-386 -470 372 0
-386 470 368 0
387 469 -388 0
387 -469 -391 0
-387 -469 391 0
-387 469 388 0
388 -470 -379 0
388 470 -389 0
-388 470 389 0
-388 -470 379 0
389 -471 376 0
389 376 -390 0
-389 -376 0
-389 471 390 0
390 -433 -472 0
390 472 -233 0
-390 433 -472 0
-390 472 233 0
391 -440 470 471 472 0
-391 -472 0
-391 -471 0
-391 440 0
-391 -470 0
392 218 -393 0
392 -218 -396 397 0
-392 -218 396 0
-392 218 393 0
-392 -218 -397 0
393 -468 37 -395 0
393 468 37 -394 0
-393 -37 0
-393 -468 395 0
-393 468 394 0
394 469 -366 0
394 -469 -370 0
-394 -469 370 0
-394 469 366 0
395 469 -378 0
-395 -469 0
-395 378 0
-396 468 -469 388 0
-396 468 469 386 0
396 -468 0
396 -469 -388 0
396 469 -386 0
-397 468 37 0
-397 469 37 -391 0
397 -37 0
397 -468 391 0
397 -468 -469 0
398 26 -399 0
398 -26 218 -400 0
-398 -26 -218 0
-398 26 399 0
-398 -26 400 0
399 204 -218 -387 0
399 204 218 -369 0
-399 -204 0
-399 -218 387 0
-399 218 369 0
400 204 -395 0
-400 -204 0
-400 395 0
401 468 -365 0
401 468 469 -402 0
-401 -468 0
-401 -469 365 0
-401 365 402 0
-402 -470 384 0
-402 470 403 404 0
402 470 -404 0
402 -470 -384 0
402 470 -403 0
403 -412 471 472 0
403 -413 471 -472 0
-403 -471 0
-403 413 -472 0
-403 412 472 0
404 -414 -471 472 0
404 -471 -472 -221 0
-404 471 0
-404 414 472 0
-404 -472 221 0
405 -468 -469 -407 0
405 -468 469 -406 0
-405 468 0
-405 -469 407 0
-405 469 406 0
406 -371 -389 0
406 470 -371 0
-406 371 0
-406 -470 389 0
407 470 -408 0
407 -470 471 -355 0
-407 -470 -471 0
-407 470 408 0
-407 -470 355 0
408 471 -351 0
408 -471 -353 0
-408 -471 353 0
-408 471 351 0
-473 0
2 0

